; benchmark generated from python API
(set-info :status unknown)
(declare-fun A_2 () Real)
(declare-fun B () Real)
(declare-fun A_3 () Real)
(declare-fun S_0 () Real)
(declare-fun S_1 () Real)
(declare-fun L_1 () Real)
(declare-fun S_3 () Real)
(declare-fun L_0 () Real)
(declare-fun A_0 () Real)
(declare-fun S_2 () Real)
(declare-fun A_1 () Real)
(assert
 (let (($x896 (<= (+ A_0 (* (- 1.0) S_1) (* (- 1.0) B) (* (- 1.0) L_1)) 0.0)))
 (let (($x911 (<= (+ (* (- 1.0) S_2) (* (- 1.0) B) (* (- 1.0) L_1) A_1) 0.0)))
 (let (($x912 (>= B 0.0)))
 (let ((?x4440 (* (/ 1.0 2.0) A_2)))
 (let ((?x4428 (* (- (/ 1.0 2.0)) B)))
 (let ((?x826 (* (- 1.0) S_2)))
 (let ((?x2896 (* (- (/ 1.0 2.0)) A_3)))
 (let ((?x2951 (* (- (/ 1.0 2.0)) L_0)))
 (let ((?x2515 (* (/ 1.0 2.0) S_3)))
 (let ((?x2707 (* (/ 1.0 2.0) A_0)))
 (let (($x1040 (<= (+ (* (- 1.0) L_1) A_1 ?x826) 0.0)))
 (let (($x1333 (= B 0.0)))
 (let ((?x1121 (* (- 2.0) A_1)))
 (let ((?x1103 (* 2.0 L_1)))
 (let ((?x634 (* (- 1.0) A_3)))
 (let ((?x517 (* (- 1.0) L_0)))
 (let (($x900 (<= (+ (* (- 1.0) A_0) S_0 B L_1) 0.0)))
 (let ((?x526 (* (- 1.0) L_1)))
 (let (($x473 (= ?x526 ?x517)))
 (let (($x4978 (or $x473 $x900 (<= (+ A_0 S_3 ?x517 ?x634 ?x1103 B ?x1121 A_2) 0.0) $x1333)))
 (let ((?x894 (* (- 1.0) S_3)))
 (let ((?x547 (* (- 1.0) A_0)))
 (let ((?x1218 (+ ?x547 ?x894 L_0 (* (- 2.0) L_1) (* (- 2.0) B) (* 2.0 A_1))))
 (let (($x862 (<= (+ A_2 ?x894 ?x526) 0.0)))
 (let (($x3230 (<= (+ (* (- (/ 1.0 2.0)) A_0) (* (- (/ 1.0 2.0)) S_3) (* (/ 1.0 2.0) L_0) S_1) 0.0)))
 (let (($x3153 (<= (+ (* (/ 2.0 3.0) A_0) (* (/ 1.0 3.0) S_3) (* (- (/ 2.0 3.0)) L_0) ?x826) 0.0)))
 (let (($x415 (or $x473 $x900 (<= (+ A_0 ?x517 S_2 ?x1103 (* 2.0 B) ?x1121) 0.0) $x1333)))
 (let ((?x1340 (* (- 3.0) A_1)))
 (let ((?x1338 (* 3.0 B)))
 (let ((?x1337 (* 3.0 L_1)))
 (let ((?x967 (* (- 2.0) L_0)))
 (let ((?x1336 (* 2.0 A_0)))
 (let (($x2028 (or (<= (+ (* (- 1.0) A_2) S_3 A_0 ?x826 ?x517 L_1) 0.0) $x1040)))
 (let (($x1731 (<= (+ (* (- 1.0) A_2) S_3 A_0 ?x517 ?x1103 B (* (- 1.0) A_1)) 0.0)))
 (and (<= ?x526 ?x517) (or $x473 $x900 $x1333 $x1731) (or $x473 $x900 (<= (+ S_1 L_1 B (* (- 1.0) A_1)) 0.0)) $x2028 (or $x473 $x900 $x1333 (<= (+ S_3 ?x1336 ?x967 ?x1337 ?x1338 ?x1340) 0.0)) $x415 (or $x1040 $x3153) (or $x862 $x1333 $x3230) (or $x862 (<= ?x1218 0.0) $x1333) $x4978 (or $x1040 (<= (+ ?x2707 ?x2515 ?x2951 ?x2896 ?x826 ?x4428 ?x4440) 0.0)) $x912 $x911 (<= (+ ?x826 S_1) 0.0) $x896 (<= (+ (* (- 1.0) A_2) S_2 L_1) 0.0) (<= (+ L_1 (* (- 1.0) A_1) S_1) 0.0) (<= (+ ?x894 S_2) 0.0) (<= (+ ?x547 L_0 S_0) 0.0) (<= (+ S_3 ?x634 L_1) 0.0) (<= (+ (* (- 1.0) S_1) S_0) 0.0) (<= (+ ?x634 (* (- 1.0) B) A_2) 0.0)))))))))))))))))))))))))))))))))))))
(check-sat)
